59
213
128
300
196
346
185
211
228
273
171
325
105
106
344
380
32
140
177
55
14
31
94
56
157
19
132
158
106
121
67
58
356
98
53
61
45
54
43
30
58
185
138
75
63
125
83
122
99
99
223
189
339
46
187
61
264
249
229
205
255
186
361
128
285
114
238
49
